p cnf 91 377
12 13 -31 57 -73 79 0
-14 -31 57 -73 -78 79 0
-15 29 -30 -31 57 -73 0
1 42 45 -60 -87 0
4 23 51 -85 -91 0
-4 -63 78 82 84 0
-6 37 62 -63 82 0
7 9 45 46 -48 0
7 9 45 46 64 0
7 9 45 55 64 0
13 -31 57 -73 78 0
20 41 -54 71 -72 0
21 22 69 -77 88 0
-42 45 46 83 -87 0
21 22 -72 -77 88 0
1 3 24 59 0
1 56 59 -62 0
1 60 83 -87 0
2 -32 -35 59 0
2 -32 -35 -61 0
3 4 19 -33 0
3 50 -51 -89 0
-3 4 16 -68 0
-3 -23 -51 67 0
-3 49 67 -68 0
4 23 68 -91 0
7 45 48 55 0
-8 42 46 83 0
10 11 12 -27 0
10 11 12 34 0
10 -21 22 -69 0
11 -12 -31 78 0
11 -31 -76 -80 0
12 26 -27 -28 0
12 26 -31 -34 0
-13 -49 68 90 0
-13 66 -67 86 0
-16 -19 -51 67 0
-16 -19 67 91 0
-16 -50 -51 -68 0
-17 -18 -19 -40 0
-17 22 -44 -72 0
-18 -19 -38 -64 0
-18 -23 -41 -48 0
19 -33 -65 74 0
19 -36 -74 -76 0
19 39 41 48 0
-19 20 -54 -72 0
-19 30 33 36 0
-19 -51 -81 -85 0
-20 -22 70 72 0
23 32 56 59 0
23 -74 -75 -76 0
-23 25 30 65 0
-23 -40 65 80 0
-32 -34 35 59 0
-35 -61 65 -74 0
1 8 -42 83 0
3 19 -50 51 0
3 25 -33 76 0
-3 -23 -51 -89 0
-4 52 -61 84 0
-4 -63 -78 -84 0
-5 -35 -63 82 0
-6 -65 74 82 0
7 9 55 64 0
9 46 -47 -87 0
12 13 58 -79 0
-14 -15 -31 57 0
-16 -23 67 91 0
-19 51 81 91 0
20 -38 53 -54 0
21 69 70 -88 0
-21 22 41 -77 0
23 -75 -76 -80 0
1 6 -62 0
1 6 63 0
1 8 83 0
1 10 -32 0
1 24 -32 0
1 -52 56 0
1 59 88 0
-1 -10 24 0
-1 -22 -88 0
3 4 -67 0
3 -89 -91 0
-3 16 49 0
-3 50 67 0
-3 50 -89 0
4 10 -34 0
4 13 84 0
4 -61 63 0
4 -61 -84 0
-5 61 62 0
-5 -78 82 0
6 23 -36 0
6 23 -82 0
6 -36 -37 0
-6 -35 36 0
7 46 60 0
-7 -8 -42 0
-7 -8 -46 0
8 -23 86 0
8 -46 64 0
-8 -9 -46 0
-8 -23 -88 0
-8 41 -70 0
-8 46 -55 0
-9 -40 43 0
10 20 21 0
10 -27 -57 0
-10 26 57 0
-10 27 -34 0
11 26 -27 0
11 26 34 0
-11 25 -76 0
-12 -19 31 0
-12 -29 73 0
13 49 58 0
13 49 85 0
-13 -85 90 0
14 30 73 0
14 -78 -79 0
15 -29 30 0
-16 -50 68 0
17 23 40 0
-17 44 -69 0
-17 -47 -48 0
18 39 64 0
-18 -23 -60 0
19 38 54 0
-19 -41 -53 0
-19 51 -81 0
-19 86 -90 0
20 21 -72 0
-20 -21 70 0
22 53 71 0
22 -53 -72 0
-22 41 -53 0
-22 -41 -70 0
23 -26 28 0
23 -36 -74 0
23 -65 -75 0
-23 -24 36 0
-23 -26 -59 0
-23 -38 81 0
-24 -32 -33 0
-24 35 -59 0
25 33 59 0
25 -33 34 0
-25 -36 37 0
29 30 -73 0
30 -74 82 0
-35 -52 65 0
36 -37 63 0
36 52 62 0
38 46 64 0
38 -54 72 0
-38 53 -70 0
-39 -40 -43 0
-39 -48 -55 0
40 43 -87 0
40 45 55 0
-41 70 -77 0
-42 -60 -83 0
-43 45 -87 0
-45 -48 55 0
49 67 -68 0
49 67 85 0
49 81 91 0
49 -86 91 0
50 66 67 0
-50 -66 86 0
58 78 79 0
58 78 -79 0
-58 76 80 0
65 -74 -82 0
66 -86 90 0
66 -89 -90 0
-66 -67 89 0
-66 -86 -90 0
-69 70 83 0
74 -75 -80 0
1 3 0
1 27 0
1 -32 0
1 -52 0
-1 32 0
-1 -33 0
-1 37 0
-1 78 0
-1 -83 0
2 3 0
2 5 0
2 6 0
2 24 0
2 56 0
2 59 0
2 65 0
-2 -6 0
-2 35 0
-2 37 0
-2 61 0
-2 82 0
3 -77 0
-3 51 0
-3 68 0
-3 86 0
-3 89 0
4 42 0
4 -51 0
4 61 0
4 68 0
4 -78 0
4 85 0
-4 52 0
5 -62 0
5 63 0
5 78 0
5 -78 0
5 -82 0
5 -84 0
-5 74 0
-5 78 0
-5 84 0
6 35 0
7 42 0
7 48 0
-7 -46 0
-7 -48 0
-7 -60 0
-7 87 0
8 9 0
8 -45 0
8 -50 0
8 64 0
8 -70 0
8 -88 0
-8 -9 0
-8 48 0
-8 -64 0
-8 87 0
-8 88 0
9 -47 0
-9 -45 0
10 22 0
10 -56 0
10 -60 0
10 -70 0
10 -77 0
10 83 0
10 -85 0
-10 -11 0
-10 14 0
-10 32 0
-10 -83 0
11 14 0
11 15 0
11 27 0
11 -30 0
11 80 0
-11 -15 0
-11 30 0
-11 -57 0
-11 -58 0
12 14 0
12 -14 0
12 -19 0
12 -30 0
12 34 0
12 -56 0
-12 -13 0
-12 -48 0
-12 -58 0
-12 79 0
-12 -79 0
13 -31 0
13 57 0
13 58 0
13 85 0
13 -85 0
13 89 0
13 91 0
-13 81 0
14 31 0
14 37 0
14 -57 0
14 -58 0
14 79 0
-14 15 0
-14 58 0
-14 73 0
-14 -73 0
-14 76 0
-14 -76 0
15 25 0
15 31 0
15 -57 0
15 -58 0
-15 58 0
-15 -73 0
-15 76 0
16 50 0
-16 -23 0
-16 -49 0
-16 90 0
17 18 0
17 19 0
17 22 0
17 -22 0
17 23 0
17 -42 0
17 44 0
-17 -58 0
-17 71 0
-17 -87 0
18 21 0
18 41 0
18 69 0
-18 -47 0
-18 -69 0
19 21 0
19 -30 0
19 32 0
19 -51 0
19 56 0
19 64 0
19 68 0
19 69 0
19 75 0
19 -80 0
19 85 0
-19 -28 0
-19 -34 0
-19 -43 0
-19 -60 0
-19 -65 0
-19 -69 0
-19 -77 0
-19 -79 0
-19 80 0
-19 81 0
-19 84 0
-19 -84 0
-19 -86 0
-19 89 0
-19 -89 0
20 25 0
20 54 0
20 69 0
20 -69 0
20 71 0
-20 53 0
-20 69 0
-20 77 0
-21 42 0
-21 60 0
-21 88 0
22 38 0
22 -41 0
22 77 0
-22 53 0
-22 55 0
-22 72 0
23 -30 0
23 -32 0
23 39 0
23 41 0
23 42 0
23 45 0
23 -50 0
23 54 0
23 56 0
23 59 0
23 -62 0
23 68 0
23 76 0
